p cnf 411 1386
c ind 356 354 355 322 408 339 352 353 335 323 0
c ind 345 409 349 362 325 326 347 394 327 333 0
c ind 378 358 366 337 340 350 404 324 343 351 0
c ind 386 402 364 336 398 400 332 334 390 331 0
c ind 348 360 341 342 392 396 368 338 328 344 0
c ind 372 380 406 346 376 384 388 329 330 387 0
c ind 370 374 382 383 399 371 375 359 379 391 0
c ind 403 389 395 381 357 373 385 407 367 365 0
c ind 377 361 369 405 363 401 393 397 1 0
c ret 290 291 292 293 294 295 296 297 298 299 0
c ret 300 301 302 303 304 305 306 307 308 309 0
c ret 310 311 312 313 314 315 316 317 318 319 0
c ret 320 321 0
2 -3 -18 -83 -159 0
-2 159 0
-2 3 0
-2 83 0
-2 18 0
3 4 14 -359 0
3 4 -9 14 0
-3 -14 0
-3 -4 0
-3 9 359 0
4 -7 375 0
4 -5 375 376 0
-4 -375 0
-4 7 -376 0
-4 5 7 0
5 -6 -334 0
5 6 334 0
-5 -6 334 0
-5 6 -334 0
6 -302 -377 0
6 302 377 0
-6 302 -377 0
-6 -302 377 0
7 -8 374 0
-7 -374 0
-7 8 0
8 -301 333 -375 0
8 301 333 375 0
-8 -333 0
-8 -301 375 0
-8 301 -375 0
9 10 -358 0
9 12 -360 0
9 -358 -360 0
9 10 12 0
-9 -12 358 0
-9 -10 360 0
10 -11 324 0
10 11 -324 0
-10 -11 -324 0
-10 11 324 0
11 293 -361 0
11 -293 361 0
-11 -293 -361 0
-11 293 361 0
12 -13 323 0
-12 -323 0
-12 13 0
13 -292 -359 0
13 292 359 0
-13 292 -359 0
-13 -292 359 0
14 -16 399 0
14 -15 398 399 0
-14 -399 0
-14 16 -398 0
-14 15 16 0
15 -314 347 -399 0
15 314 347 399 0
-15 -347 0
-15 -314 399 0
-15 314 -399 0
16 17 -348 400 0
16 -17 348 400 0
-16 -400 0
-16 -17 -348 0
-16 17 348 0
17 315 -401 0
17 -315 401 0
-17 -315 -401 0
-17 315 401 0
18 -19 -26 -36 -46 0
-18 46 0
-18 19 0
-18 36 0
-18 26 0
19 -20 -22 0
19 21 -22 -339 0
19 -21 -22 339 0
-19 22 0
-19 20 21 339 0
-19 20 -21 -339 0
20 -339 -386 0
20 339 -385 386 0
20 -339 -385 -387 0
-20 385 386 0
-20 339 -386 0
-20 -339 386 387 0
21 -307 -387 0
21 307 387 0
-21 307 -387 0
-21 -307 387 0
22 -24 25 0
22 23 25 -347 0
22 -23 25 347 0
-22 -25 0
-22 -23 24 -347 0
-22 23 24 347 0
23 -314 -399 0
23 314 399 0
-23 314 -399 0
-23 -314 399 0
24 -347 -398 0
24 347 -397 398 0
24 -347 -397 -399 0
-24 397 398 0
-24 347 -398 0
-24 -347 398 399 0
25 -301 333 -374 375 0
25 301 333 -374 -375 0
25 301 -333 374 375 0
-25 -333 -374 0
-25 -301 374 0
-25 374 -375 0
-25 -301 -375 0
-25 301 333 375 0
26 27 29 -32 0
26 29 -32 370 0
-26 32 0
-26 -29 0
-26 -27 -370 0
27 -28 -298 0
27 28 298 0
-27 -28 298 0
-27 28 -298 0
28 329 -330 0
28 -329 330 0
-28 -329 -330 0
-28 329 330 0
29 30 -31 -326 0
29 30 31 326 0
-29 -30 0
-29 31 -326 0
-29 -31 326 0
30 -326 -364 0
30 326 -363 364 0
30 -326 -363 -365 0
-30 363 364 0
-30 326 -364 0
-30 -326 364 365 0
31 -295 -365 0
31 295 365 0
-31 295 -365 0
-31 -295 365 0
32 -33 35 0
32 -34 35 -336 0
32 34 35 336 0
-32 -35 0
-32 33 -34 336 0
-32 33 34 -336 0
33 -336 -380 0
33 336 -379 380 0
33 -336 -379 -381 0
-33 379 380 0
-33 336 -380 0
-33 -336 380 381 0
34 304 -381 0
34 -304 381 0
-34 -304 -381 0
-34 304 381 0
35 -305 337 -382 383 0
35 305 337 -382 -383 0
35 305 -337 382 383 0
-35 -337 -382 0
-35 -305 382 0
-35 382 -383 0
-35 -305 -383 0
-35 305 337 383 0
36 37 -383 0
36 37 -42 0
-36 -37 0
-36 42 383 0
37 39 -40 0
37 -38 39 -389 0
-37 -39 0
-37 38 40 0
-37 40 389 0
38 341 -342 0
38 -341 342 0
-38 -341 -342 0
-38 341 342 0
-38 39 -309 0
38 39 309 0
-38 -39 309 0
38 -39 -309 0
40 41 -343 390 0
40 -41 343 390 0
-40 -390 0
-40 -41 -343 0
-40 41 343 0
41 310 -391 0
41 -310 391 0
-41 -310 -391 0
-41 310 391 0
42 43 -384 0
42 44 -382 0
42 -382 -384 0
42 43 44 0
-42 -44 384 0
-42 -43 382 0
43 -305 337 -383 0
43 305 337 383 0
-43 -337 0
-43 -305 383 0
-43 305 -383 0
44 -45 338 0
44 45 -338 0
-44 -45 -338 0
-44 45 338 0
45 306 -385 0
45 -306 385 0
-45 -306 -385 0
-45 306 385 0
46 -47 -56 -63 -72 0
-46 72 0
-46 47 0
-46 63 0
-46 56 0
47 50 51 -52 0
47 48 51 -52 0
-47 52 0
-47 -51 0
-47 -48 -50 0
48 -49 -337 0
48 49 337 0
-48 -49 337 0
-48 49 -337 0
49 -305 -383 0
49 305 383 0
-49 305 -383 0
-49 -305 383 0
50 381 382 0
-50 -381 0
-50 -382 0
51 -299 331 -370 371 0
51 299 331 -370 -371 0
51 299 -331 370 371 0
-51 -331 -370 0
-51 -299 370 0
-51 370 -371 0
-51 -299 -371 0
-51 299 331 371 0
52 53 -54 0
52 53 55 -340 0
52 53 -55 340 0
-52 -53 0
-52 54 -55 -340 0
-52 54 55 340 0
53 -311 344 -392 393 0
53 311 344 -392 -393 0
53 311 -344 392 393 0
-53 -344 -392 0
-53 -311 392 0
-53 392 -393 0
-53 -311 -393 0
-53 311 344 393 0
54 -340 -388 0
54 340 -387 388 0
54 -340 -387 -389 0
-54 387 388 0
-54 340 -388 0
-54 -340 388 389 0
55 -308 -389 0
55 308 389 0
-55 308 -389 0
-55 -308 389 0
39 56 57 -58 0
56 57 -58 390 0
-56 58 0
-56 -57 0
-39 -56 -390 0
57 -300 332 -372 373 0
57 300 332 -372 -373 0
57 300 -332 372 373 0
-57 -332 -372 0
-57 -300 372 0
-57 372 -373 0
-57 -300 -373 0
-57 300 332 373 0
58 59 61 0
58 61 -371 0
58 61 -372 0
-58 -61 0
-58 -59 371 372 0
59 -60 332 0
59 60 -332 0
-59 -60 -332 0
-59 60 332 0
60 300 -373 0
60 -300 373 0
-60 -300 -373 0
-60 300 373 0
-27 61 -62 0
27 -61 0
-61 62 0
62 299 -331 -371 0
62 -299 -331 371 0
-62 331 0
-62 -299 -371 0
-62 299 371 0
63 64 65 -66 0
39 63 65 -66 0
-63 66 0
-63 -65 0
-39 -63 -64 0
64 310 -343 -391 0
64 -310 -343 391 0
-64 343 0
-64 -310 -391 0
-64 310 391 0
65 -296 327 -366 367 0
65 296 327 -366 -367 0
65 296 -327 366 367 0
-65 -327 -366 0
-65 -296 366 0
-65 366 -367 0
-65 -296 -367 0
-65 296 327 367 0
66 67 69 0
66 69 -367 0
66 69 -368 0
-66 -69 0
-66 -67 367 368 0
67 -68 328 0
67 68 -328 0
-67 -68 -328 0
-67 68 328 0
68 297 -369 0
68 -297 369 0
-68 -297 -369 0
-68 297 369 0
69 -70 365 366 0
-69 70 0
-69 -366 0
-69 -365 0
70 -71 327 0
70 71 -327 0
-70 -71 -327 0
-70 71 327 0
71 296 -367 0
71 -296 367 0
-71 -296 -367 0
-71 296 367 0
72 -73 79 82 0
72 -73 80 82 0
-72 73 0
-72 -82 0
-72 -79 -80 0
73 74 76 0
73 76 -395 0
73 76 -396 0
-73 -76 0
-73 -74 395 396 0
74 -75 346 0
74 75 -346 0
-74 -75 -346 0
-74 75 346 0
75 313 -397 0
75 -313 397 0
-75 -313 -397 0
-75 313 397 0
76 77 -78 -345 0
76 77 78 345 0
-76 -77 0
-76 78 -345 0
-76 -78 345 0
77 -345 -394 0
77 345 -393 394 0
77 -345 -393 -395 0
-77 393 394 0
-77 345 -394 0
-77 -345 394 395 0
78 -312 -395 0
78 312 395 0
-78 312 -395 0
-78 -312 395 0
79 405 406 0
-79 -405 0
-79 -406 0
80 -81 -351 0
80 81 351 0
-80 -81 351 0
-80 81 -351 0
81 -318 -407 0
81 318 407 0
-81 318 -407 0
-81 -318 407 0
82 -306 338 -384 385 0
82 306 338 -384 -385 0
82 306 -338 384 385 0
-82 -338 -384 0
-82 -306 384 0
-82 384 -385 0
-82 -306 -385 0
-82 306 338 385 0
83 -84 -110 -134 -147 0
-83 147 0
-83 84 0
-83 134 0
-83 110 0
84 -85 -92 -98 -104 0
-84 104 0
-84 85 0
-84 98 0
-84 92 0
85 86 87 -88 0
-79 85 87 -88 0
-85 88 0
-85 -87 0
79 -85 -86 0
81 86 -351 0
-86 351 0
-81 -86 0
87 294 325 362 363 0
-87 -363 0
-87 -362 0
-87 -294 0
-87 -325 0
88 89 -90 0
88 91 369 0
88 89 91 0
88 -90 369 0
-88 -89 -369 0
-88 90 -91 0
-28 89 298 0
-89 -298 0
28 -89 0
90 357 358 0
-90 -357 0
-90 -358 0
13 91 -323 0
-91 323 0
-13 -91 0
-50 92 -94 97 0
92 93 -94 97 0
-92 94 0
-92 -97 0
50 -92 -93 0
93 305 -337 -383 0
93 -305 -337 383 0
-93 337 0
-93 -305 -383 0
-93 305 383 0
94 95 96 0
94 388 392 0
94 96 392 0
94 95 388 0
-94 -95 -392 0
-94 -96 -388 0
95 311 -344 -393 0
95 -311 -344 393 0
-95 344 0
-95 -311 -393 0
-95 311 393 0
96 308 -340 -389 0
96 -308 -340 389 0
-96 340 0
-96 -308 -389 0
-96 308 389 0
97 317 350 404 405 0
-97 -405 0
-97 -404 0
-97 -317 0
-97 -350 0
98 99 -100 102 0
98 -100 102 372 0
-98 100 0
-98 -102 0
-98 -99 -372 0
99 300 -332 -373 0
99 -300 -332 373 0
-99 332 0
-99 -300 -373 0
-99 300 373 0
62 100 101 0
100 362 370 0
100 101 370 0
62 100 362 0
-62 -100 -370 0
-100 -101 -362 0
101 294 -325 -363 0
101 -294 -325 363 0
-101 325 0
-101 -294 -363 0
-101 294 363 0
102 -103 -360 0
102 -103 -359 0
-102 103 0
-102 359 360 0
103 293 -324 -361 0
103 -293 -324 361 0
-103 324 0
-103 -293 -361 0
-103 293 361 0
104 -105 107 403 0
104 -105 107 109 0
-104 105 0
-104 -107 0
-104 -109 -403 0
101 105 106 0
105 361 368 0
101 105 368 0
105 106 361 0
-105 -106 -368 0
-101 -105 -361 0
106 297 -328 -369 0
106 -297 -328 369 0
-106 328 0
-106 -297 -369 0
-106 297 369 0
107 -108 -364 0
-107 364 0
-107 108 0
108 295 -326 -365 0
108 -295 -326 365 0
-108 326 0
-108 -295 -365 0
-108 295 365 0
109 317 -350 -405 0
109 -317 -350 405 0
-109 350 0
-109 -317 -405 0
-109 317 405 0
110 -111 -118 -124 -130 0
-110 130 0
-110 111 0
-110 124 0
-110 118 0
111 112 -113 117 0
111 -113 117 380 0
-111 113 0
-111 -117 0
-111 -112 -380 0
112 304 -336 -381 0
112 -304 -336 381 0
-112 336 0
-112 -304 -381 0
-112 304 381 0
113 115 -116 0
113 114 383 0
113 -116 383 0
113 114 115 0
-113 -115 -383 0
-113 -114 116 0
114 301 -333 -375 0
114 -301 -333 375 0
-114 333 0
-114 -301 -375 0
-114 301 375 0
115 306 -338 -385 0
115 -306 -338 385 0
-115 338 0
-115 -306 -385 0
-115 306 385 0
116 373 374 0
-116 -373 0
-116 -374 0
117 291 322 357 409 0
-117 -409 0
-117 -357 0
-117 -291 0
-117 -322 0
118 119 -120 123 0
118 -120 123 399 0
-118 120 0
-118 -123 0
-118 -119 -399 0
119 315 -348 -401 0
119 -315 -348 401 0
-119 348 0
-119 -315 -401 0
-119 315 401 0
120 122 379 0
112 120 -121 0
120 -121 379 0
112 120 122 0
-112 -120 -379 0
-120 121 -122 0
121 397 398 0
-121 -397 0
-121 -398 0
122 314 -347 -399 0
122 -314 -347 399 0
-122 347 0
-122 -314 -399 0
-122 314 399 0
-106 123 -367 0
-123 367 0
106 -123 0
124 125 126 -127 0
124 126 -127 395 0
-124 127 0
-124 -126 0
-124 -125 -395 0
125 313 -346 -397 0
125 -313 -346 397 0
-125 346 0
-125 -313 -397 0
-125 313 397 0
126 308 340 388 389 0
-126 -389 0
-126 -388 0
-126 -308 0
-126 -340 0
-21 127 -339 0
127 128 339 0
127 -129 -339 0
21 127 339 0
-21 -127 -128 339 0
21 -127 129 -339 0
128 386 387 0
-128 -386 0
-128 -387 0
129 385 386 0
-129 -385 0
-129 -386 0
96 130 131 -132 0
130 131 -132 387 0
-130 132 0
-130 -131 0
-96 -130 -387 0
131 -315 348 -400 401 0
131 315 348 -400 -401 0
131 315 -348 400 401 0
-131 -348 -400 0
-131 -315 400 0
-131 400 -401 0
-131 -315 -401 0
-131 315 348 401 0
132 133 384 0
115 132 376 0
115 132 133 0
132 376 384 0
-132 -133 -376 0
-115 -132 -384 0
6 133 -334 0
-133 334 0
-6 -133 0
134 135 137 138 142 0
-134 -142 0
-134 -138 0
-134 -135 0
-134 -137 0
27 135 -136 331 370 0
27 135 136 -331 370 0
-135 -370 0
-135 -136 -331 0
-27 -135 0
-135 136 331 0
136 299 -371 0
136 -299 371 0
-136 -299 -371 0
-136 299 371 0
137 -309 341 389 0
137 -309 342 389 0
137 341 342 389 0
-137 309 -341 0
-137 -341 -342 0
-137 -389 0
-137 309 -342 0
138 141 -322 0
138 139 -140 322 0
138 139 141 0
138 -139 -140 -322 0
-138 -139 322 0
-138 140 -141 0
-138 139 -141 -322 0
139 -291 -357 0
139 291 357 0
-139 291 -357 0
-139 -291 357 0
140 408 409 0
-140 -408 0
-140 -409 0
-139 141 -357 0
139 141 409 0
-139 141 -409 0
139 -141 -409 0
-139 -141 357 409 0
142 143 -145 0
142 143 319 -407 0
-142 -143 0
-142 145 -319 0
-142 145 407 0
143 -144 -319 0
143 144 319 0
-143 -144 319 0
-143 144 -319 0
144 352 -353 0
144 -352 353 0
-144 -352 -353 0
-144 352 353 0
145 146 354 0
145 -320 354 0
145 146 -320 0
-145 320 -354 0
-145 -146 -354 0
-145 -146 320 0
146 321 -355 0
-146 -321 0
-146 355 0
147 -148 -152 157 158 0
-147 152 0
-147 -158 0
-147 148 0
-147 -157 0
109 148 149 -150 0
148 149 -150 404 0
-148 150 0
-148 -149 0
-109 -148 -404 0
149 318 351 406 407 0
-149 -407 0
-149 -406 0
-149 -318 0
-149 -351 0
133 150 408 0
150 151 375 0
133 150 151 0
150 375 408 0
-133 -150 -375 0
-150 -151 -408 0
139 151 -322 0
-151 322 0
-139 -151 0
119 152 153 -154 0
152 153 -154 400 0
-152 154 0
-152 -153 0
-119 -152 -400 0
-125 153 -396 0
-153 396 0
125 -153 0
154 155 349 0
154 -349 401 0
154 -155 -349 0
154 156 349 0
-154 -155 -156 349 0
-154 155 -349 -401 0
155 -316 -403 0
155 316 403 0
-155 316 -403 0
-155 -316 403 0
156 402 403 0
-156 -402 0
-156 -403 0
157 -319 352 407 0
157 -319 353 407 0
157 352 353 407 0
-157 319 -352 0
-157 -352 -353 0
-157 -407 0
-157 319 -353 0
158 -298 329 369 0
158 -298 330 369 0
158 329 330 369 0
-158 298 -329 0
-158 -329 -330 0
-158 -369 0
-158 298 -330 0
159 -160 -192 -213 -250 0
-159 250 0
-159 160 0
-159 213 0
-159 192 0
160 -161 -166 -172 -177 0
-160 177 0
-160 161 0
-160 172 0
-160 166 0
161 163 -165 0
161 -162 163 350 0
161 162 163 -350 0
-161 -163 0
-161 162 165 350 0
-161 -162 165 -350 0
162 -317 -405 0
162 317 405 0
-162 317 -405 0
-162 -317 405 0
-155 163 164 -349 0
155 163 164 349 0
-163 -164 0
155 -163 -349 0
-155 -163 349 0
164 -349 -402 0
164 349 -401 402 0
164 -349 -401 -403 0
-164 401 402 0
-164 349 -402 0
-164 -349 402 403 0
165 -350 -404 0
165 350 -403 404 0
165 -350 -403 -405 0
-165 403 404 0
-165 350 -404 0
-165 -350 404 405 0
166 168 -171 0
166 -167 168 325 0
166 167 168 -325 0
-166 -168 0
-166 167 171 325 0
-166 -167 171 -325 0
167 -294 -363 0
167 294 363 0
-167 294 -363 0
-167 -294 363 0
168 169 -170 -335 0
168 169 170 335 0
-168 -169 0
-168 170 -335 0
-168 -170 335 0
169 -335 -378 0
169 335 -377 378 0
169 -335 -377 -379 0
-169 377 378 0
-169 335 -378 0
-169 -335 378 379 0
170 -303 -379 0
170 303 379 0
-170 303 -379 0
-170 -303 379 0
171 -325 -362 0
171 325 -361 362 0
171 -325 -361 -363 0
-171 361 362 0
-171 325 -362 0
-171 -325 362 363 0
172 -173 175 176 0
-172 173 0
-172 -176 0
-172 -175 0
-27 -145 173 0
143 173 174 0
-27 143 173 0
-145 173 174 0
27 -173 -174 0
-143 145 -173 0
174 331 370 0
-174 -331 0
-174 -370 0
81 175 351 -406 0
-81 175 -351 406 407 0
-175 -351 -406 0
-81 -175 351 0
81 -175 406 0
-81 -175 -407 0
176 -302 334 -376 377 0
176 302 334 -376 -377 0
176 302 -334 376 377 0
-176 -334 -376 0
-176 -302 376 0
-176 376 -377 0
-176 -302 -377 0
-176 302 334 377 0
177 -178 -182 -186 -190 0
-177 190 0
-177 178 0
-177 186 0
-177 182 0
178 179 181 0
178 181 -391 0
178 181 -392 0
-178 -181 0
-178 -179 391 392 0
179 -180 344 0
179 180 -344 0
-179 -180 -344 0
-179 180 344 0
180 311 -393 0
180 -311 393 0
-180 -311 -393 0
-180 311 393 0
181 -310 343 -390 391 0
181 310 343 -390 -391 0
181 310 -343 390 391 0
-181 -343 -390 0
-181 -310 390 0
-181 390 -391 0
-181 -310 -391 0
-181 310 343 391 0
182 183 -184 0
-13 182 183 323 0
13 182 183 -323 0
-182 -183 0
13 -182 184 323 0
-13 -182 184 -323 0
183 -313 346 -396 397 0
183 313 346 -396 -397 0
183 313 -346 396 397 0
-183 -346 -396 0
-183 -313 396 0
-183 396 -397 0
-183 -313 -397 0
-183 313 346 397 0
184 -185 -292 0
184 -185 -358 0
184 -185 -359 0
-184 185 0
-184 292 358 359 0
185 -357 358 0
185 -323 -358 0
-185 357 358 0
-185 323 -358 0
186 187 189 0
186 189 -373 0
186 189 -374 0
-186 -189 0
-186 -187 373 374 0
187 -188 -333 0
187 188 333 0
-187 -188 333 0
-187 188 -333 0
188 -301 -375 0
188 301 375 0
-188 301 -375 0
-188 -301 375 0
189 -293 324 -360 361 0
189 293 324 -360 -361 0
189 293 -324 360 361 0
-189 -324 -360 0
-189 -293 360 0
-189 360 -361 0
-189 -293 -361 0
-189 293 324 361 0
190 191 -343 0
190 191 -390 0
-39 190 191 0
-190 -191 0
39 -190 343 390 0
191 -297 328 -368 369 0
191 297 328 -368 -369 0
191 297 -328 368 369 0
-191 -328 -368 0
-191 -297 368 0
-191 368 -369 0
-191 -297 -369 0
-191 297 328 369 0
192 -193 -198 -205 -210 0
-192 210 0
-192 193 0
-192 205 0
-192 198 0
193 194 -195 197 0
193 -195 197 366 0
-193 195 0
-193 -197 0
-193 -194 -366 0
194 296 -327 -367 0
194 -296 -327 367 0
-194 327 0
-194 -296 -367 0
-194 296 367 0
-31 195 196 0
31 195 326 0
31 195 363 0
-31 195 -326 0
31 -195 -326 -363 0
-31 -195 -196 326 0
196 364 365 0
-196 -364 0
-196 -365 0
197 303 335 378 379 0
-197 -379 0
-197 -378 0
-197 -303 0
-197 -335 0
99 198 -199 204 0
198 -199 204 371 0
-198 199 0
-198 -204 0
-99 -198 -371 0
199 200 201 -202 0
199 201 -202 402 0
-199 202 0
-199 -201 0
-199 -200 -402 0
200 316 -349 -403 0
200 -316 -349 403 0
-200 349 0
-200 -316 -403 0
-200 316 403 0
201 333 373 374 0
-201 -333 0
-201 -374 0
-201 -373 0
202 203 381 0
202 203 380 382 0
-202 -203 0
-202 -381 -382 0
-202 -380 -381 0
203 336 379 380 0
-203 -336 0
-203 -380 0
-203 -379 0
204 302 334 376 377 0
-204 -377 0
-204 -376 0
-204 -302 0
-204 -334 0
194 205 206 -208 0
205 206 -208 365 0
-205 208 0
-205 -206 0
-194 -205 -365 0
206 -207 -377 0
-206 377 0
-206 207 0
207 303 -335 -379 0
207 -303 -335 379 0
-207 335 0
-207 -303 -379 0
-207 303 379 0
207 208 209 0
208 378 394 0
207 208 394 0
208 209 378 0
-208 -209 -394 0
-207 -208 -378 0
209 312 -345 -395 0
209 -312 -345 395 0
-209 345 0
-209 -312 -395 0
-209 312 395 0
64 210 211 -212 0
210 211 -212 390 0
-210 212 0
-210 -211 0
-64 -210 -390 0
211 312 345 394 395 0
-211 -395 0
-211 -394 0
-211 -312 0
-211 -345 0
95 212 393 0
209 212 391 0
95 209 212 0
212 391 393 0
-95 -212 -391 0
-209 -212 -393 0
213 -214 -235 -240 -245 0
-213 245 0
-213 214 0
-213 240 0
-213 235 0
214 -215 -224 -230 -233 0
-214 233 0
-214 215 0
-214 230 0
-214 224 0
215 -216 -218 -220 -222 0
-215 222 0
-215 216 0
-215 220 0
-215 218 0
216 217 366 0
216 217 365 367 0
-216 -217 0
-216 -366 -367 0
-216 -365 -366 0
217 -391 -392 0
217 -392 -393 0
-217 392 0
-217 391 393 0
218 219 375 0
218 219 374 376 0
-218 -219 0
-218 -375 -376 0
-218 -374 -375 0
219 -367 -368 0
219 -368 -369 0
-219 368 0
-219 367 369 0
220 221 379 0
220 221 378 380 0
-220 -221 0
-220 -379 -380 0
-220 -378 -379 0
221 325 361 362 0
-221 -325 0
-221 -362 0
-221 -361 0
222 223 398 0
222 223 397 399 0
-222 -223 0
-222 -398 -399 0
-222 -397 -398 0
223 -376 -377 0
223 -377 -378 0
-223 377 0
-223 376 378 0
224 225 226 -227 0
224 226 -227 -391 0
-224 227 0
-224 -226 0
-224 -225 391 0
225 344 392 0
-225 -344 0
-225 -392 0
226 335 377 378 0
-226 -335 0
-226 -378 0
-226 -377 0
227 228 -395 0
227 229 -383 0
227 -383 -395 0
227 228 229 0
-227 -229 395 0
-227 -228 383 0
228 338 384 0
-228 -338 0
-228 -384 0
229 346 396 0
-229 -346 0
-229 -396 0
230 231 -359 0
230 232 -349 0
230 -349 -359 0
230 231 232 0
-230 -232 359 0
-230 -231 349 0
231 401 402 0
-231 -401 0
-231 -402 0
232 324 360 0
-232 -324 0
-232 -360 0
233 234 362 0
233 234 361 363 0
-233 -234 0
-233 -362 -363 0
-233 -361 -362 0
234 -372 -373 0
234 -373 -374 0
-234 373 0
-234 372 374 0
235 236 237 -238 0
235 237 -238 -343 0
-235 238 0
-235 -237 0
-235 -236 343 0
236 310 390 391 0
-236 -310 0
-236 -391 0
-236 -390 0
237 315 348 400 401 0
-237 -401 0
-237 -400 0
-237 -315 0
-237 -348 0
238 -239 -323 0
238 -239 -357 0
238 -239 -358 0
-238 239 0
-238 323 357 358 0
239 389 390 0
239 388 391 0
239 389 391 0
239 388 390 0
-239 -388 -389 0
-239 -390 -391 0
240 241 -242 244 0
240 -242 244 369 0
-240 242 0
-240 -244 0
-240 -241 -369 0
241 -329 -330 0
-241 329 0
-241 330 0
242 243 364 0
242 243 363 365 0
-242 -243 0
-242 -364 -365 0
-242 -363 -364 0
243 -405 -406 0
243 -406 -407 0
-243 406 0
-243 405 407 0
244 -357 -358 0
244 -358 -359 0
-244 358 0
-244 357 359 0
245 246 247 -248 0
245 247 -248 -367 0
-245 248 0
-245 -247 0
-245 -246 367 0
246 328 368 0
-246 -328 0
-246 -368 0
247 -399 -400 0
247 -400 -401 0
-247 400 0
-247 399 401 0
248 249 394 0
248 249 393 395 0
-248 -249 0
-248 -394 -395 0
-248 -393 -394 0
249 -408 -409 0
249 -357 -409 0
-249 409 0
-249 357 408 0
250 -251 -256 -260 -270 0
-250 270 0
-250 251 0
-250 260 0
-250 256 0
251 -253 255 -381 0
251 252 -253 255 0
-251 253 0
-251 -255 0
-251 -252 381 0
252 337 382 0
-252 -337 0
-252 -382 0
253 254 404 0
253 254 403 405 0
-253 -254 0
-253 -404 -405 0
-253 -403 -404 0
254 297 328 368 369 0
-254 -369 0
-254 -368 0
-254 -297 0
-254 -328 0
255 313 346 396 397 0
-255 -397 0
-255 -396 0
-255 -313 0
-255 -346 0
256 -257 259 -347 0
121 256 -257 259 0
-256 257 0
-256 -259 0
-121 -256 347 0
257 258 402 0
257 258 401 403 0
-257 -258 0
-257 -402 -403 0
-257 -401 -402 0
258 345 393 394 0
-258 -345 0
-258 -394 0
-258 -393 0
259 322 408 409 0
-259 -322 0
-259 -409 0
-259 -408 0
260 -261 -263 -265 -268 0
-260 268 0
-260 261 0
-260 265 0
-260 263 0
261 262 360 0
261 262 359 361 0
-261 -262 0
-261 -360 -361 0
-261 -359 -360 0
262 -384 -385 0
262 -385 -386 0
-262 385 0
-262 384 386 0
263 264 383 0
263 264 382 384 0
-263 -264 0
-263 -383 -384 0
-263 -382 -383 0
264 -395 -396 0
264 -396 -397 0
-264 396 0
-264 395 397 0
265 266 267 0
265 267 -300 0
265 267 -373 0
-265 -267 0
-265 -266 300 373 0
266 332 372 0
-266 -332 0
-266 -372 0
267 304 336 380 381 0
-267 -381 0
-267 -380 0
-267 -304 0
-267 -336 0
268 269 371 0
268 269 370 372 0
-268 -269 0
-268 -371 -372 0
-268 -370 -371 0
269 -386 -387 0
269 -387 -388 0
-269 387 0
-269 386 388 0
270 -271 -275 -280 -285 0
-270 285 0
-270 271 0
-270 280 0
-270 275 0
174 271 -273 274 0
271 272 -273 274 0
-271 273 0
-271 -274 0
-174 -271 -272 0
272 299 371 0
-272 -299 0
-272 -371 0
129 273 -371 0
266 273 -339 0
273 -339 -371 0
129 266 273 0
-266 -273 371 0
-129 -273 339 0
274 350 403 404 0
-274 -350 0
-274 -404 0
-274 -403 0
275 276 277 -278 0
275 277 -278 -327 0
-275 278 0
-275 -277 0
-275 -276 327 0
276 365 366 0
-276 -365 0
-276 -366 0
277 334 375 376 0
-277 -334 0
-277 -376 0
-277 -375 0
79 278 279 0
278 -351 389 0
79 278 389 0
278 279 -351 0
-278 -279 -389 0
-79 -278 351 0
279 -341 -342 0
-279 341 0
-279 342 0
280 281 -282 284 0
280 -282 284 407 0
-280 282 0
-280 -284 0
-280 -281 -407 0
281 -352 -353 0
-281 352 0
-281 353 0
282 283 -348 0
282 283 -399 0
282 283 -400 0
-282 -283 0
-282 348 399 400 0
283 296 327 366 367 0
-283 -367 0
-283 -366 0
-283 -296 0
-283 -327 0
284 293 324 360 361 0
-284 -361 0
-284 -360 0
-284 -293 0
-284 -324 0
285 -287 289 -340 0
285 286 -287 289 0
-285 287 0
-285 -289 0
-285 -286 340 0
286 387 388 0
-286 -387 0
-286 -388 0
225 287 288 0
287 288 -311 0
287 288 -393 0
-287 -288 0
-225 -287 311 393 0
288 306 338 384 385 0
-288 -385 0
-288 -384 0
-288 -306 0
-288 -338 0
289 326 363 364 0
-289 -326 0
-289 -364 0
-289 -363 0
1 -2 0
-1 2 0
410 0

